n = 443;
rows = 936;
supports = [|
  {1},2..27,
 |{1},418..443,
 |{2},{1},
 |{2},3..28,
 |{2},419..443,
 |{3},1..2,
 |{3},4..29,
 |{3},420..443,
 |{4},1..3,
 |{4},5..30,
 |{4},421..443,
 |{5},1..4,
 |{5},6..31,
 |{5},422..443,
 |{6},1..5,
 |{6},7..32,
 |{6},423..443,
 |{7},1..6,
 |{7},8..33,
 |{7},424..443,
 |{8},1..7,
 |{8},9..34,
 |{8},425..443,
 |{9},1..8,
 |{9},10..35,
 |{9},426..443,
 |{10},1..9,
 |{10},11..36,
 |{10},427..443,
 |{11},1..10,
 |{11},12..37,
 |{11},428..443,
 |{12},1..11,
 |{12},13..38,
 |{12},429..443,
 |{13},1..12,
 |{13},14..39,
 |{13},430..443,
 |{14},1..13,
 |{14},15..40,
 |{14},431..443,
 |{15},1..14,
 |{15},16..41,
 |{15},432..443,
 |{16},1..15,
 |{16},17..42,
 |{16},433..443,
 |{17},1..16,
 |{17},18..43,
 |{17},434..443,
 |{18},1..17,
 |{18},19..44,
 |{18},435..443,
 |{19},1..18,
 |{19},20..45,
 |{19},436..443,
 |{20},1..19,
 |{20},21..46,
 |{20},437..443,
 |{21},1..20,
 |{21},22..47,
 |{21},438..443,
 |{22},1..21,
 |{22},23..48,
 |{22},439..443,
 |{23},1..22,
 |{23},24..49,
 |{23},440..443,
 |{24},1..23,
 |{24},25..50,
 |{24},441..443,
 |{25},1..24,
 |{25},26..51,
 |{25},442..443,
 |{26},1..25,
 |{26},27..52,
 |{26},{443},
 |{27},1..26,
 |{27},28..53,
 |{28},2..27,
 |{28},29..54,
 |{29},3..28,
 |{29},30..55,
 |{30},4..29,
 |{30},31..56,
 |{31},5..30,
 |{31},32..57,
 |{32},6..31,
 |{32},33..58,
 |{33},7..32,
 |{33},34..59,
 |{34},8..33,
 |{34},35..60,
 |{35},9..34,
 |{35},36..61,
 |{36},10..35,
 |{36},37..62,
 |{37},11..36,
 |{37},38..63,
 |{38},12..37,
 |{38},39..64,
 |{39},13..38,
 |{39},40..65,
 |{40},14..39,
 |{40},41..66,
 |{41},15..40,
 |{41},42..67,
 |{42},16..41,
 |{42},43..68,
 |{43},17..42,
 |{43},44..69,
 |{44},18..43,
 |{44},45..70,
 |{45},19..44,
 |{45},46..71,
 |{46},20..45,
 |{46},47..72,
 |{47},21..46,
 |{47},48..73,
 |{48},22..47,
 |{48},49..74,
 |{49},23..48,
 |{49},50..75,
 |{50},24..49,
 |{50},51..76,
 |{51},25..50,
 |{51},52..77,
 |{52},26..51,
 |{52},53..78,
 |{53},27..52,
 |{53},54..79,
 |{54},28..53,
 |{54},55..80,
 |{55},29..54,
 |{55},56..81,
 |{56},30..55,
 |{56},57..82,
 |{57},31..56,
 |{57},58..83,
 |{58},32..57,
 |{58},59..84,
 |{59},33..58,
 |{59},60..85,
 |{60},34..59,
 |{60},61..86,
 |{61},35..60,
 |{61},62..87,
 |{62},36..61,
 |{62},63..88,
 |{63},37..62,
 |{63},64..89,
 |{64},38..63,
 |{64},65..90,
 |{65},39..64,
 |{65},66..91,
 |{66},40..65,
 |{66},67..92,
 |{67},41..66,
 |{67},68..93,
 |{68},42..67,
 |{68},69..94,
 |{69},43..68,
 |{69},70..95,
 |{70},44..69,
 |{70},71..96,
 |{71},45..70,
 |{71},72..97,
 |{72},46..71,
 |{72},73..98,
 |{73},47..72,
 |{73},74..99,
 |{74},48..73,
 |{74},75..100,
 |{75},49..74,
 |{75},76..101,
 |{76},50..75,
 |{76},77..102,
 |{77},51..76,
 |{77},78..103,
 |{78},52..77,
 |{78},79..104,
 |{79},53..78,
 |{79},80..105,
 |{80},54..79,
 |{80},81..106,
 |{81},55..80,
 |{81},82..107,
 |{82},56..81,
 |{82},83..108,
 |{83},57..82,
 |{83},84..109,
 |{84},58..83,
 |{84},85..110,
 |{85},59..84,
 |{85},86..111,
 |{86},60..85,
 |{86},87..112,
 |{87},61..86,
 |{87},88..113,
 |{88},62..87,
 |{88},89..114,
 |{89},63..88,
 |{89},90..115,
 |{90},64..89,
 |{90},91..116,
 |{91},65..90,
 |{91},92..117,
 |{92},66..91,
 |{92},93..118,
 |{93},67..92,
 |{93},94..119,
 |{94},68..93,
 |{94},95..120,
 |{95},69..94,
 |{95},96..121,
 |{96},70..95,
 |{96},97..122,
 |{97},71..96,
 |{97},98..123,
 |{98},72..97,
 |{98},99..124,
 |{99},73..98,
 |{99},100..125,
 |{100},74..99,
 |{100},101..126,
 |{101},75..100,
 |{101},102..127,
 |{102},76..101,
 |{102},103..128,
 |{103},77..102,
 |{103},104..129,
 |{104},78..103,
 |{104},105..130,
 |{105},79..104,
 |{105},106..131,
 |{106},80..105,
 |{106},107..132,
 |{107},81..106,
 |{107},108..133,
 |{108},82..107,
 |{108},109..134,
 |{109},83..108,
 |{109},110..135,
 |{110},84..109,
 |{110},111..136,
 |{111},85..110,
 |{111},112..137,
 |{112},86..111,
 |{112},113..138,
 |{113},87..112,
 |{113},114..139,
 |{114},88..113,
 |{114},115..140,
 |{115},89..114,
 |{115},116..141,
 |{116},90..115,
 |{116},117..142,
 |{117},91..116,
 |{117},118..143,
 |{118},92..117,
 |{118},119..144,
 |{119},93..118,
 |{119},120..145,
 |{120},94..119,
 |{120},121..146,
 |{121},95..120,
 |{121},122..147,
 |{122},96..121,
 |{122},123..148,
 |{123},97..122,
 |{123},124..149,
 |{124},98..123,
 |{124},125..150,
 |{125},99..124,
 |{125},126..151,
 |{126},100..125,
 |{126},127..152,
 |{127},101..126,
 |{127},128..153,
 |{128},102..127,
 |{128},129..154,
 |{129},103..128,
 |{129},130..155,
 |{130},104..129,
 |{130},131..156,
 |{131},105..130,
 |{131},132..157,
 |{132},106..131,
 |{132},133..158,
 |{133},107..132,
 |{133},134..159,
 |{134},108..133,
 |{134},135..160,
 |{135},109..134,
 |{135},136..161,
 |{136},110..135,
 |{136},137..162,
 |{137},111..136,
 |{137},138..163,
 |{138},112..137,
 |{138},139..164,
 |{139},113..138,
 |{139},140..165,
 |{140},114..139,
 |{140},141..166,
 |{141},115..140,
 |{141},142..167,
 |{142},116..141,
 |{142},143..168,
 |{143},117..142,
 |{143},144..169,
 |{144},118..143,
 |{144},145..170,
 |{145},119..144,
 |{145},146..171,
 |{146},120..145,
 |{146},147..172,
 |{147},121..146,
 |{147},148..173,
 |{148},122..147,
 |{148},149..174,
 |{149},123..148,
 |{149},150..175,
 |{150},124..149,
 |{150},151..176,
 |{151},125..150,
 |{151},152..177,
 |{152},126..151,
 |{152},153..178,
 |{153},127..152,
 |{153},154..179,
 |{154},128..153,
 |{154},155..180,
 |{155},129..154,
 |{155},156..181,
 |{156},130..155,
 |{156},157..182,
 |{157},131..156,
 |{157},158..183,
 |{158},132..157,
 |{158},159..184,
 |{159},133..158,
 |{159},160..185,
 |{160},134..159,
 |{160},161..186,
 |{161},135..160,
 |{161},162..187,
 |{162},136..161,
 |{162},163..188,
 |{163},137..162,
 |{163},164..189,
 |{164},138..163,
 |{164},165..190,
 |{165},139..164,
 |{165},166..191,
 |{166},140..165,
 |{166},167..192,
 |{167},141..166,
 |{167},168..193,
 |{168},142..167,
 |{168},169..194,
 |{169},143..168,
 |{169},170..195,
 |{170},144..169,
 |{170},171..196,
 |{171},145..170,
 |{171},172..197,
 |{172},146..171,
 |{172},173..198,
 |{173},147..172,
 |{173},174..199,
 |{174},148..173,
 |{174},175..200,
 |{175},149..174,
 |{175},176..201,
 |{176},150..175,
 |{176},177..202,
 |{177},151..176,
 |{177},178..203,
 |{178},152..177,
 |{178},179..204,
 |{179},153..178,
 |{179},180..205,
 |{180},154..179,
 |{180},181..206,
 |{181},155..180,
 |{181},182..207,
 |{182},156..181,
 |{182},183..208,
 |{183},157..182,
 |{183},184..209,
 |{184},158..183,
 |{184},185..210,
 |{185},159..184,
 |{185},186..211,
 |{186},160..185,
 |{186},187..212,
 |{187},161..186,
 |{187},188..213,
 |{188},162..187,
 |{188},189..214,
 |{189},163..188,
 |{189},190..215,
 |{190},164..189,
 |{190},191..216,
 |{191},165..190,
 |{191},192..217,
 |{192},166..191,
 |{192},193..218,
 |{193},167..192,
 |{193},194..219,
 |{194},168..193,
 |{194},195..220,
 |{195},169..194,
 |{195},196..221,
 |{196},170..195,
 |{196},197..222,
 |{197},171..196,
 |{197},198..223,
 |{198},172..197,
 |{198},199..224,
 |{199},173..198,
 |{199},200..225,
 |{200},174..199,
 |{200},201..226,
 |{201},175..200,
 |{201},202..227,
 |{202},176..201,
 |{202},203..228,
 |{203},177..202,
 |{203},204..229,
 |{204},178..203,
 |{204},205..230,
 |{205},179..204,
 |{205},206..231,
 |{206},180..205,
 |{206},207..232,
 |{207},181..206,
 |{207},208..233,
 |{208},182..207,
 |{208},209..234,
 |{209},183..208,
 |{209},210..235,
 |{210},184..209,
 |{210},211..236,
 |{211},185..210,
 |{211},212..237,
 |{212},186..211,
 |{212},213..238,
 |{213},187..212,
 |{213},214..239,
 |{214},188..213,
 |{214},215..240,
 |{215},189..214,
 |{215},216..241,
 |{216},190..215,
 |{216},217..242,
 |{217},191..216,
 |{217},218..243,
 |{218},192..217,
 |{218},219..244,
 |{219},193..218,
 |{219},220..245,
 |{220},194..219,
 |{220},221..246,
 |{221},195..220,
 |{221},222..247,
 |{222},196..221,
 |{222},223..248,
 |{223},197..222,
 |{223},224..249,
 |{224},198..223,
 |{224},225..250,
 |{225},199..224,
 |{225},226..251,
 |{226},200..225,
 |{226},227..252,
 |{227},201..226,
 |{227},228..253,
 |{228},202..227,
 |{228},229..254,
 |{229},203..228,
 |{229},230..255,
 |{230},204..229,
 |{230},231..256,
 |{231},205..230,
 |{231},232..257,
 |{232},206..231,
 |{232},233..258,
 |{233},207..232,
 |{233},234..259,
 |{234},208..233,
 |{234},235..260,
 |{235},209..234,
 |{235},236..261,
 |{236},210..235,
 |{236},237..262,
 |{237},211..236,
 |{237},238..263,
 |{238},212..237,
 |{238},239..264,
 |{239},213..238,
 |{239},240..265,
 |{240},214..239,
 |{240},241..266,
 |{241},215..240,
 |{241},242..267,
 |{242},216..241,
 |{242},243..268,
 |{243},217..242,
 |{243},244..269,
 |{244},218..243,
 |{244},245..270,
 |{245},219..244,
 |{245},246..271,
 |{246},220..245,
 |{246},247..272,
 |{247},221..246,
 |{247},248..273,
 |{248},222..247,
 |{248},249..274,
 |{249},223..248,
 |{249},250..275,
 |{250},224..249,
 |{250},251..276,
 |{251},225..250,
 |{251},252..277,
 |{252},226..251,
 |{252},253..278,
 |{253},227..252,
 |{253},254..279,
 |{254},228..253,
 |{254},255..280,
 |{255},229..254,
 |{255},256..281,
 |{256},230..255,
 |{256},257..282,
 |{257},231..256,
 |{257},258..283,
 |{258},232..257,
 |{258},259..284,
 |{259},233..258,
 |{259},260..285,
 |{260},234..259,
 |{260},261..286,
 |{261},235..260,
 |{261},262..287,
 |{262},236..261,
 |{262},263..288,
 |{263},237..262,
 |{263},264..289,
 |{264},238..263,
 |{264},265..290,
 |{265},239..264,
 |{265},266..291,
 |{266},240..265,
 |{266},267..292,
 |{267},241..266,
 |{267},268..293,
 |{268},242..267,
 |{268},269..294,
 |{269},243..268,
 |{269},270..295,
 |{270},244..269,
 |{270},271..296,
 |{271},245..270,
 |{271},272..297,
 |{272},246..271,
 |{272},273..298,
 |{273},247..272,
 |{273},274..299,
 |{274},248..273,
 |{274},275..300,
 |{275},249..274,
 |{275},276..301,
 |{276},250..275,
 |{276},277..302,
 |{277},251..276,
 |{277},278..303,
 |{278},252..277,
 |{278},279..304,
 |{279},253..278,
 |{279},280..305,
 |{280},254..279,
 |{280},281..306,
 |{281},255..280,
 |{281},282..307,
 |{282},256..281,
 |{282},283..308,
 |{283},257..282,
 |{283},284..309,
 |{284},258..283,
 |{284},285..310,
 |{285},259..284,
 |{285},286..311,
 |{286},260..285,
 |{286},287..312,
 |{287},261..286,
 |{287},288..313,
 |{288},262..287,
 |{288},289..314,
 |{289},263..288,
 |{289},290..315,
 |{290},264..289,
 |{290},291..316,
 |{291},265..290,
 |{291},292..317,
 |{292},266..291,
 |{292},293..318,
 |{293},267..292,
 |{293},294..319,
 |{294},268..293,
 |{294},295..320,
 |{295},269..294,
 |{295},296..321,
 |{296},270..295,
 |{296},297..322,
 |{297},271..296,
 |{297},298..323,
 |{298},272..297,
 |{298},299..324,
 |{299},273..298,
 |{299},300..325,
 |{300},274..299,
 |{300},301..326,
 |{301},275..300,
 |{301},302..327,
 |{302},276..301,
 |{302},303..328,
 |{303},277..302,
 |{303},304..329,
 |{304},278..303,
 |{304},305..330,
 |{305},279..304,
 |{305},306..331,
 |{306},280..305,
 |{306},307..332,
 |{307},281..306,
 |{307},308..333,
 |{308},282..307,
 |{308},309..334,
 |{309},283..308,
 |{309},310..335,
 |{310},284..309,
 |{310},311..336,
 |{311},285..310,
 |{311},312..337,
 |{312},286..311,
 |{312},313..338,
 |{313},287..312,
 |{313},314..339,
 |{314},288..313,
 |{314},315..340,
 |{315},289..314,
 |{315},316..341,
 |{316},290..315,
 |{316},317..342,
 |{317},291..316,
 |{317},318..343,
 |{318},292..317,
 |{318},319..344,
 |{319},293..318,
 |{319},320..345,
 |{320},294..319,
 |{320},321..346,
 |{321},295..320,
 |{321},322..347,
 |{322},296..321,
 |{322},323..348,
 |{323},297..322,
 |{323},324..349,
 |{324},298..323,
 |{324},325..350,
 |{325},299..324,
 |{325},326..351,
 |{326},300..325,
 |{326},327..352,
 |{327},301..326,
 |{327},328..353,
 |{328},302..327,
 |{328},329..354,
 |{329},303..328,
 |{329},330..355,
 |{330},304..329,
 |{330},331..356,
 |{331},305..330,
 |{331},332..357,
 |{332},306..331,
 |{332},333..358,
 |{333},307..332,
 |{333},334..359,
 |{334},308..333,
 |{334},335..360,
 |{335},309..334,
 |{335},336..361,
 |{336},310..335,
 |{336},337..362,
 |{337},311..336,
 |{337},338..363,
 |{338},312..337,
 |{338},339..364,
 |{339},313..338,
 |{339},340..365,
 |{340},314..339,
 |{340},341..366,
 |{341},315..340,
 |{341},342..367,
 |{342},316..341,
 |{342},343..368,
 |{343},317..342,
 |{343},344..369,
 |{344},318..343,
 |{344},345..370,
 |{345},319..344,
 |{345},346..371,
 |{346},320..345,
 |{346},347..372,
 |{347},321..346,
 |{347},348..373,
 |{348},322..347,
 |{348},349..374,
 |{349},323..348,
 |{349},350..375,
 |{350},324..349,
 |{350},351..376,
 |{351},325..350,
 |{351},352..377,
 |{352},326..351,
 |{352},353..378,
 |{353},327..352,
 |{353},354..379,
 |{354},328..353,
 |{354},355..380,
 |{355},329..354,
 |{355},356..381,
 |{356},330..355,
 |{356},357..382,
 |{357},331..356,
 |{357},358..383,
 |{358},332..357,
 |{358},359..384,
 |{359},333..358,
 |{359},360..385,
 |{360},334..359,
 |{360},361..386,
 |{361},335..360,
 |{361},362..387,
 |{362},336..361,
 |{362},363..388,
 |{363},337..362,
 |{363},364..389,
 |{364},338..363,
 |{364},365..390,
 |{365},339..364,
 |{365},366..391,
 |{366},340..365,
 |{366},367..392,
 |{367},341..366,
 |{367},368..393,
 |{368},342..367,
 |{368},369..394,
 |{369},343..368,
 |{369},370..395,
 |{370},344..369,
 |{370},371..396,
 |{371},345..370,
 |{371},372..397,
 |{372},346..371,
 |{372},373..398,
 |{373},347..372,
 |{373},374..399,
 |{374},348..373,
 |{374},375..400,
 |{375},349..374,
 |{375},376..401,
 |{376},350..375,
 |{376},377..402,
 |{377},351..376,
 |{377},378..403,
 |{378},352..377,
 |{378},379..404,
 |{379},353..378,
 |{379},380..405,
 |{380},354..379,
 |{380},381..406,
 |{381},355..380,
 |{381},382..407,
 |{382},356..381,
 |{382},383..408,
 |{383},357..382,
 |{383},384..409,
 |{384},358..383,
 |{384},385..410,
 |{385},359..384,
 |{385},386..411,
 |{386},360..385,
 |{386},387..412,
 |{387},361..386,
 |{387},388..413,
 |{388},362..387,
 |{388},389..414,
 |{389},363..388,
 |{389},390..415,
 |{390},364..389,
 |{390},391..416,
 |{391},365..390,
 |{391},392..417,
 |{392},366..391,
 |{392},393..418,
 |{393},367..392,
 |{393},394..419,
 |{394},368..393,
 |{394},395..420,
 |{395},369..394,
 |{395},396..421,
 |{396},370..395,
 |{396},397..422,
 |{397},371..396,
 |{397},398..423,
 |{398},372..397,
 |{398},399..424,
 |{399},373..398,
 |{399},400..425,
 |{400},374..399,
 |{400},401..426,
 |{401},375..400,
 |{401},402..427,
 |{402},376..401,
 |{402},403..428,
 |{403},377..402,
 |{403},404..429,
 |{404},378..403,
 |{404},405..430,
 |{405},379..404,
 |{405},406..431,
 |{406},380..405,
 |{406},407..432,
 |{407},381..406,
 |{407},408..433,
 |{408},382..407,
 |{408},409..434,
 |{409},383..408,
 |{409},410..435,
 |{410},384..409,
 |{410},411..436,
 |{411},385..410,
 |{411},412..437,
 |{412},386..411,
 |{412},413..438,
 |{413},387..412,
 |{413},414..439,
 |{414},388..413,
 |{414},415..440,
 |{415},389..414,
 |{415},416..441,
 |{416},390..415,
 |{416},417..442,
 |{417},391..416,
 |{417},418..443,
 |{418},392..417,
 |{418},419..443,
 |{418},{1},
 |{419},393..418,
 |{419},420..443,
 |{419},1..2,
 |{420},394..419,
 |{420},421..443,
 |{420},1..3,
 |{421},395..420,
 |{421},422..443,
 |{421},1..4,
 |{422},396..421,
 |{422},423..443,
 |{422},1..5,
 |{423},397..422,
 |{423},424..443,
 |{423},1..6,
 |{424},398..423,
 |{424},425..443,
 |{424},1..7,
 |{425},399..424,
 |{425},426..443,
 |{425},1..8,
 |{426},400..425,
 |{426},427..443,
 |{426},1..9,
 |{427},401..426,
 |{427},428..443,
 |{427},1..10,
 |{428},402..427,
 |{428},429..443,
 |{428},1..11,
 |{429},403..428,
 |{429},430..443,
 |{429},1..12,
 |{430},404..429,
 |{430},431..443,
 |{430},1..13,
 |{431},405..430,
 |{431},432..443,
 |{431},1..14,
 |{432},406..431,
 |{432},433..443,
 |{432},1..15,
 |{433},407..432,
 |{433},434..443,
 |{433},1..16,
 |{434},408..433,
 |{434},435..443,
 |{434},1..17,
 |{435},409..434,
 |{435},436..443,
 |{435},1..18,
 |{436},410..435,
 |{436},437..443,
 |{436},1..19,
 |{437},411..436,
 |{437},438..443,
 |{437},1..20,
 |{438},412..437,
 |{438},439..443,
 |{438},1..21,
 |{439},413..438,
 |{439},440..443,
 |{439},1..22,
 |{440},414..439,
 |{440},441..443,
 |{440},1..23,
 |{441},415..440,
 |{441},442..443,
 |{441},1..24,
 |{442},416..441,
 |{442},{443},
 |{442},1..25,
 |{443},417..442,
 |{443},1..26 |];

t = 590;

indexes = [|
    0,18,
  | 0,27,
  | 0,308,
  | 1,166,
  | 1,202,
  | 1,298,
  | 2,40,
  | 2,60,
  | 2,135,
  | 2,272,
  | 3,135,
  | 4,291,
  | 5,12,
  | 6,15,
  | 6,44,
  | 6,139,
  | 6,153,
  | 7,70,
  | 7,129,
  | 7,413,
  | 8,12,
  | 8,293,
  | 9,76,
  | 9,212,
  | 9,249,
  | 9,398,
  | 10,148,
  | 10,157,
  | 10,379,
  | 11,168,
  | 11,218,
  | 11,357,
  | 12,43,
  | 12,84,
  | 12,96,
  | 12,140,
  | 12,195,
  | 13,62,
  | 13,115,
  | 14,296,
  | 15,251,
  | 16,94,
  | 16,100,
  | 16,229,
  | 16,244,
  | 16,306,
  | 17,60,
  | 17,351,
  | 17,384,
  | 17,392,
  | 18,140,
  | 18,282,
  | 18,431,
  | 19,253,
  | 19,314,
  | 19,356,
  | 19,419,
  | 20,65,
  | 20,125,
  | 21,87,
  | 21,94,
  | 21,400,
  | 22,54,
  | 22,343,
  | 23,201,
  | 23,294,
  | 23,374,
  | 24,46,
  | 24,210,
  | 24,237,
  | 24,358,
  | 25,133,
  | 25,398,
  | 26,50,
  | 26,292,
  | 26,393,
  | 27,87,
  | 27,327,
  | 28,55,
  | 28,89,
  | 28,170,
  | 29,56,
  | 29,260,
  | 29,286,
  | 30,379,
  | 31,108,
  | 31,273,
  | 32,173,
  | 32,242,
  | 33,123,
  | 33,141,
  | 33,183,
  | 33,211,
  | 33,414,
  | 33,420,
  | 33,428,
  | 34,245,
  | 34,255,
  | 34,373,
  | 34,385,
  | 35,213,
  | 35,351,
  | 36,158,
  | 36,366,
  | 37,146,
  | 37,293,
  | 38,72,
  | 38,303,
  | 38,356,
  | 38,358,
  | 39,261,
  | 40,252,
  | 41,53,
  | 41,175,
  | 41,205,
  | 42,58,
  | 42,203,
  | 42,226,
  | 42,317,
  | 42,404,
  | 43,104,
  | 43,236,
  | 43,294,
  | 43,307,
  | 44,296,
  | 45,229,
  | 45,255,
  | 45,412,
  | 45,439,
  | 47,125,
  | 47,286,
  | 48,49,
  | 48,68,
  | 48,77,
  | 49,415,
  | 50,278,
  | 50,309,
  | 51,361,
  | 51,389,
  | 52,119,
  | 52,424,
  | 54,280,
  | 55,153,
  | 56,152,
  | 56,198,
  | 56,200,
  | 56,279,
  | 56,295,
  | 56,369,
  | 56,372,
  | 57,96,
  | 57,256,
  | 57,290,
  | 57,397,
  | 58,174,
  | 58,317,
  | 59,191,
  | 59,373,
  | 60,362,
  | 60,406,
  | 61,156,
  | 61,189,
  | 61,374,
  | 61,402,
  | 62,217,
  | 63,239,
  | 63,341,
  | 63,392,
  | 64,152,
  | 64,281,
  | 64,336,
  | 65,186,
  | 65,221,
  | 65,421,
  | 66,77,
  | 66,194,
  | 67,213,
  | 67,336,
  | 68,91,
  | 68,155,
  | 68,159,
  | 68,236,
  | 69,155,
  | 69,293,
  | 69,407,
  | 71,273,
  | 71,321,
  | 71,365,
  | 72,102,
  | 72,192,
  | 72,267,
  | 72,282,
  | 72,285,
  | 72,314,
  | 72,426,
  | 73,283,
  | 73,298,
  | 74,154,
  | 74,240,
  | 74,245,
  | 75,91,
  | 75,141,
  | 76,89,
  | 76,249,
  | 78,293,
  | 79,310,
  | 79,318,
  | 79,341,
  | 80,109,
  | 80,110,
  | 80,118,
  | 80,156,
  | 80,185,
  | 81,277,
  | 82,339,
  | 83,253,
  | 83,272,
  | 85,189,
  | 85,197,
  | 86,270,
  | 87,319,
  | 88,170,
  | 88,219,
  | 89,408,
  | 90,101,
  | 90,144,
  | 90,208,
  | 90,219,
  | 91,155,
  | 91,187,
  | 91,193,
  | 91,227,
  | 91,366,
  | 91,425,
  | 92,181,
  | 92,318,
  | 92,360,
  | 92,437,
  | 93,238,
  | 93,400,
  | 95,370,
  | 96,211,
  | 96,391,
  | 97,147,
  | 97,173,
  | 98,203,
  | 98,276,
  | 98,412,
  | 99,190,
  | 99,377,
  | 100,306,
  | 101,180,
  | 101,208,
  | 101,224,
  | 101,286,
  | 102,192,
  | 102,246,
  | 102,259,
  | 102,282,
  | 102,431,
  | 103,315,
  | 103,411,
  | 104,106,
  | 104,137,
  | 104,164,
  | 104,212,
  | 104,294,
  | 105,228,
  | 105,380,
  | 105,442,
  | 107,139,
  | 108,236,
  | 109,110,
  | 110,266,
  | 110,387,
  | 111,159,
  | 111,390,
  | 112,131,
  | 112,429,
  | 113,279,
  | 113,421,
  | 114,355,
  | 115,172,
  | 116,162,
  | 116,288,
  | 116,376,
  | 117,145,
  | 117,384,
  | 119,361,
  | 119,386,
  | 119,389,
  | 120,355,
  | 121,130,
  | 121,388,
  | 122,419,
  | 124,262,
  | 124,278,
  | 124,364,
  | 125,268,
  | 126,160,
  | 126,271,
  | 127,165,
  | 128,367,
  | 129,427,
  | 130,184,
  | 132,301,
  | 132,350,
  | 133,405,
  | 134,430,
  | 135,179,
  | 136,161,
  | 138,194,
  | 138,418,
  | 139,221,
  | 141,187,
  | 141,374,
  | 141,418,
  | 142,183,
  | 143,330,
  | 143,366,
  | 144,180,
  | 144,208,
  | 145,209,
  | 145,384,
  | 146,176,
  | 146,316,
  | 147,266,
  | 148,214,
  | 148,284,
  | 148,379,
  | 149,190,
  | 150,237,
  | 150,400,
  | 150,427,
  | 151,269,
  | 152,170,
  | 153,219,
  | 153,221,
  | 154,290,
  | 154,293,
  | 154,311,
  | 154,346,
  | 155,236,
  | 158,172,
  | 158,334,
  | 158,366,
  | 159,325,
  | 159,333,
  | 160,176,
  | 160,298,
  | 160,346,
  | 161,332,
  | 161,434,
  | 163,196,
  | 165,188,
  | 165,189,
  | 165,197,
  | 165,199,
  | 165,275,
  | 165,313,
  | 165,374,
  | 166,280,
  | 166,388,
  | 167,217,
  | 167,334,
  | 168,230,
  | 168,307,
  | 168,337,
  | 168,391,
  | 169,374,
  | 170,212,
  | 170,323,
  | 170,358,
  | 171,335,
  | 171,357,
  | 172,401,
  | 174,349,
  | 175,236,
  | 175,316,
  | 176,236,
  | 176,240,
  | 176,244,
  | 176,331,
  | 176,363,
  | 176,405,
  | 177,198,
  | 178,384,
  | 178,406,
  | 180,208,
  | 181,437,
  | 182,299,
  | 183,207,
  | 183,211,
  | 183,297,
  | 183,435,
  | 184,429,
  | 184,438,
  | 186,196,
  | 190,204,
  | 190,377,
  | 190,383,
  | 191,254,
  | 193,366,
  | 197,241,
  | 198,200,
  | 198,279,
  | 198,372,
  | 199,355,
  | 200,228,
  | 200,234,
  | 200,348,
  | 202,256,
  | 203,226,
  | 204,222,
  | 204,258,
  | 204,377,
  | 204,383,
  | 206,289,
  | 207,355,
  | 208,382,
  | 209,340,
  | 209,368,
  | 211,278,
  | 212,237,
  | 213,239,
  | 213,336,
  | 213,358,
  | 213,434,
  | 215,380,
  | 216,321,
  | 216,401,
  | 217,236,
  | 220,229,
  | 222,239,
  | 223,374,
  | 223,402,
  | 224,286,
  | 225,418,
  | 226,412,
  | 227,321,
  | 229,271,
  | 229,385,
  | 229,439,
  | 230,235,
  | 230,266,
  | 230,396,
  | 230,438,
  | 231,337,
  | 232,367,
  | 232,371,
  | 233,301,
  | 233,350,
  | 234,338,
  | 235,350,
  | 235,403,
  | 236,331,
  | 237,294,
  | 237,358,
  | 239,318,
  | 239,351,
  | 241,395,
  | 242,324,
  | 243,304,
  | 247,260,
  | 248,379,
  | 250,336,
  | 252,419,
  | 254,349,
  | 255,349,
  | 256,423,
  | 257,346,
  | 257,378,
  | 258,318,
  | 258,416,
  | 260,417,
  | 261,288,
  | 261,376,
  | 262,312,
  | 262,322,
  | 263,371,
  | 264,300,
  | 265,393,
  | 265,433,
  | 266,355,
  | 266,387,
  | 267,285,
  | 267,362,
  | 268,286,
  | 269,398,
  | 270,374,
  | 270,399,
  | 272,354,
  | 272,430,
  | 274,419,
  | 276,320,
  | 276,404,
  | 277,360,
  | 278,284,
  | 278,293,
  | 278,423,
  | 279,295,
  | 279,299,
  | 281,369,
  | 282,303,
  | 282,426,
  | 282,431,
  | 284,325,
  | 285,310,
  | 286,323,
  | 286,369,
  | 287,353,
  | 288,334,
  | 289,322,
  | 289,379,
  | 291,298,
  | 291,333,
  | 292,364,
  | 293,302,
  | 293,363,
  | 293,407,
  | 298,333,
  | 298,344,
  | 299,300,
  | 299,421,
  | 301,350,
  | 301,359,
  | 302,325,
  | 302,394,
  | 303,314,
  | 304,324,
  | 304,343,
  | 304,429,
  | 305,409,
  | 306,398,
  | 306,410,
  | 306,415,
  | 309,312,
  | 310,351,
  | 310,354,
  | 310,362,
  | 310,406,
  | 311,345,
  | 314,419,
  | 315,343,
  | 318,341,
  | 318,360,
  | 318,416,
  | 326,354,
  | 328,339,
  | 329,357,
  | 329,389,
  | 335,357,
  | 335,441,
  | 337,357,
  | 339,384,
  | 339,406,
  | 341,372,
  | 342,396,
  | 345,397,
  | 346,347,
  | 348,380,
  | 349,404,
  | 350,389,
  | 350,396,
  | 352,386,
  | 352,424,
  | 353,357,
  | 353,436,
  | 354,381,
  | 356,358,
  | 357,389,
  | 357,441,
  | 358,427,
  | 358,434,
  | 359,424,
  | 361,371,
  | 362,430,
  | 365,425,
  | 367,370,
  | 370,389,
  | 375,437,
  | 389,432,
  | 397,422,
  | 398,400,
  | 400,409,
  | 404,412,
  | 411,423,
  | 411,433,
  | 419,440,
  | 422,423 |];

